p cnf 197 464
c
c
c
p cnf 197 464
c
c
c
25 10 0
-25 -10 0
26 11 0
-26 -11 0
27 12 0
-27 -12 0
28 13 0
-28 -13 0
29 14 0
-29 -14 0
30 15 0
-30 -15 0
31 16 0
-31 -16 0
32 17 0
-32 -17 0
33 18 0
-33 -18 0
34 19 0
-34 -19 0
35 20 0
-35 -20 0
36 12 0
-36 -12 0
37 11 0
-37 -11 0
38 1 0
-38 -1 0
39 27 0
-39 -27 0
-186 10 0
-186 37 0
186 -10 -37 0
-185 186 0
-185 12 0
185 -186 -12 0
40 185 0
-40 -185 0
41 24 0
41 35 0
-41 -24 -35 0
42 23 0
42 35 0
-42 -23 -35 0
43 22 0
43 35 0
-43 -22 -35 0
44 21 0
44 35 0
-44 -21 -35 0
45 39 0
45 11 0
-45 -39 -11 0
188 -10 0
188 -11 0
-188 10 11 0
187 -188 0
187 -12 0
-187 188 12 0
46 187 0
-46 -187 0
-47 -36 0
-47 -26 0
47 36 26 0
-48 -45 0
-48 -25 0
48 45 25 0
49 43 0
-49 -43 0
50 44 0
-50 -44 0
51 45 0
-51 -45 0
-52 29 0
-52 49 0
52 -29 -49 0
-53 28 0
-53 50 0
53 -28 -50 0
54 -29 0
54 -49 0
-54 29 49 0
55 -28 0
55 -50 0
-55 28 50 0
56 -51 0
56 -10 0
-56 51 10 0
57 46 0
-57 -46 0
58 40 0
-58 -40 0
59 40 0
-59 -40 0
60 57 0
-60 -57 0
61 57 0
-61 -57 0
62 57 0
-62 -57 0
63 47 0
63 10 0
-63 -47 -10 0
64 51 0
64 10 0
-64 -51 -10 0
65 64 0
65 56 0
-65 -64 -56 0
66 57 0
-66 -57 0
67 41 0
-67 -41 0
68 42 0
-68 -42 0
-69 -46 0
-69 -58 0
69 46 58 0
-70 -36 0
-70 -58 0
70 36 58 0
-71 -1 0
-71 -65 0
71 1 65 0
-72 21 0
-72 57 0
72 -21 -57 0
-73 22 0
-73 57 0
73 -22 -57 0
-74 23 0
-74 57 0
74 -23 -57 0
-75 24 0
-75 57 0
75 -24 -57 0
-76 32 0
-76 59 0
76 -32 -59 0
-77 33 0
-77 59 0
77 -33 -59 0
-78 34 0
-78 59 0
78 -34 -59 0
-79 35 0
-79 59 0
79 -35 -59 0
-80 9 0
-80 60 0
80 -9 -60 0
-81 8 0
-81 61 0
81 -8 -61 0
-82 7 0
-82 62 0
82 -7 -62 0
-83 6 0
-83 66 0
83 -6 -66 0
-84 30 0
-84 68 0
84 -30 -68 0
85 58 0
-85 -58 0
86 59 0
-86 -59 0
-87 32 0
-87 69 0
87 -32 -69 0
-88 33 0
-88 69 0
88 -33 -69 0
-89 34 0
-89 69 0
89 -34 -69 0
-90 5 0
-90 86 0
90 -5 -86 0
91 -31 0
91 -67 0
-91 31 67 0
92 -30 0
92 -68 0
-92 30 68 0
93 59 0
-93 -59 0
94 59 0
-94 -59 0
95 59 0
-95 -59 0
96 -70 0
96 -11 0
-96 70 11 0
97 69 0
-97 -69 0
98 69 0
-98 -69 0
99 97 0
-99 -97 0
100 97 0
-100 -97 0
101 97 0
-101 -97 0
102 97 0
-102 -97 0
103 31 0
103 67 0
-103 -31 -67 0
104 70 0
104 11 0
-104 -70 -11 0
105 85 0
105 12 0
-105 -85 -12 0
106 103 0
106 91 0
-106 -103 -91 0
107 104 0
107 96 0
-107 -104 -96 0
108 106 0
-108 -106 0
-109 -72 0
-109 -80 0
109 72 80 0
-110 -73 0
-110 -81 0
110 73 81 0
-111 -74 0
-111 -82 0
111 74 82 0
-112 -75 0
-112 -83 0
112 75 83 0
-113 -76 0
-113 -90 0
113 76 90 0
-114 -1 0
-114 -107 0
114 1 107 0
115 103 0
-115 -103 0
-116 4 0
-116 93 0
116 -4 -93 0
117 105 0
-117 -105 0
-118 3 0
-118 94 0
118 -3 -94 0
-119 2 0
-119 95 0
119 -2 -95 0
-120 28 0
-120 97 0
120 -28 -97 0
121 109 0
-121 -109 0
-122 29 0
-122 97 0
122 -29 -97 0
123 110 0
-123 -110 0
124 111 0
-124 -111 0
125 112 0
-125 -112 0
-126 30 0
-126 97 0
126 -30 -97 0
127 113 0
-127 -113 0
-128 31 0
-128 97 0
128 -31 -97 0
-189 30 0
-189 68 0
189 -30 -68 0
-129 189 0
-129 115 0
129 -189 -115 0
-130 92 0
-130 115 0
130 -92 -115 0
-131 108 0
-131 69 0
131 -108 -69 0
-132 127 0
-132 98 0
132 -127 -98 0
-133 -77 0
-133 -116 0
133 77 116 0
-134 -78 0
-134 -118 0
134 78 118 0
-135 -79 0
-135 -119 0
135 79 119 0
136 133 0
-136 -133 0
-137 136 0
-137 98 0
137 -136 -98 0
-138 -1 0
-138 -117 0
138 1 117 0
-139 -84 0
-139 -130 0
139 84 130 0
-140 -131 0
-140 -132 0
140 131 132 0
-141 -87 0
-141 -137 0
141 87 137 0
142 134 0
-142 -134 0
190 -30 0
190 -68 0
-190 30 68 0
143 -190 0
143 -115 0
-143 190 115 0
144 135 0
-144 -135 0
145 139 0
-145 -139 0
-146 142 0
-146 98 0
146 -142 -98 0
-147 -88 0
-147 -146 0
147 88 146 0
191 -29 0
191 -49 0
-191 29 49 0
148 -191 0
148 -145 0
-148 191 145 0
-149 144 0
-149 98 0
149 -144 -98 0
-150 139 0
-150 143 0
150 -139 -143 0
-192 29 0
-192 49 0
192 -29 -49 0
-151 192 0
-151 145 0
151 -192 -145 0
-152 54 0
-152 145 0
152 -54 -145 0
-153 -89 0
-153 -149 0
153 89 149 0
-154 -150 0
-154 -129 0
154 150 129 0
-155 -52 0
-155 -152 0
155 52 152 0
-156 155 0
-156 148 0
156 -155 -148 0
157 154 0
-157 -154 0
158 155 0
-158 -155 0
-159 55 0
-159 158 0
159 -55 -158 0
-160 -156 0
-160 -151 0
160 156 151 0
-161 -53 0
-161 -159 0
161 53 159 0
162 160 0
-162 -160 0
193 -28 0
193 -50 0
-193 28 50 0
163 -193 0
163 -158 0
-163 193 158 0
-164 157 0
-164 102 0
164 -157 -102 0
-194 28 0
-194 50 0
194 -28 -50 0
-165 194 0
-165 158 0
165 -194 -158 0
-166 162 0
-166 101 0
166 -162 -101 0
167 161 0
-167 -161 0
-168 -128 0
-168 -164 0
168 128 164 0
-169 -126 0
-169 -166 0
169 126 166 0
170 169 0
-170 -169 0
171 168 0
-171 -168 0
-172 167 0
-172 99 0
172 -167 -99 0
173 170 0
173 38 0
-173 -170 -38 0
-174 161 0
-174 163 0
174 -161 -163 0
-175 -174 0
-175 -165 0
175 174 165 0
-176 -120 0
-176 -172 0
176 120 172 0
177 171 0
177 38 0
-177 -171 -38 0
178 176 0
-178 -176 0
179 175 0
-179 -175 0
180 178 0
180 38 0
-180 -178 -38 0
-181 179 0
-181 100 0
181 -179 -100 0
-182 -122 0
-182 -181 0
182 122 181 0
183 182 0
-183 -182 0
184 183 0
184 38 0
-184 -183 -38 0
c
c
-195 153 147 0
-195 -153 -147 0
195 -153 147 0
195 153 -147 0
195 0
-196 153 147 0
-196 -153 -147 0
196 -153 147 0
196 153 -147 0
196 0
-197 153 147 0
-197 -153 -147 0
197 -153 147 0
197 153 -147 0
197 0
